1 2331
2 2039
3 2029
5 1921
11 1887
21 1842
311 1828
719 1816



1 2231
2 2039
5 2029
6 1987
11 1833
216 1822
221 1817
876 1815



1 2260
2 2099
3 1946
7 1915
18 1868
52 1835
370 1813
963 1811



1 2308
2 1997
6 1945
15 1869
24 1867
83 1850
172 1778



1 2240
2 2032
3 1977
11 1941
16 1905
26 1895
78 1865
84 1795
657 1786



